Route #1: 1 42 43 23 63 3 72 71 74 28 1 
Route #2: 1 49 24 55 39 32 51 1 
Route #3: 1 56 22 69 15 21 62 1 
Route #4: 1 1 30 27 13 57 37 1 
Route #5: 1 33 12 75 2 73 1 
Route #6: 1 16 9 26 68 6 1 
Route #7: 1 64 41 40 17 1 
Route #8: 1 67 46 34 45 1 
Route #9: 1 44 58 10 38 35 1 
Route #10: 1 4 20 5 48 1 
Route #11: 1 61 60 70 47 29 52 65 1 
Route #12: 1 7 53 14 19 8 1 
Route #13: 1 18 50 25 31 59 1 
Route #14: 1 36 54 11 1 
Route #15: 1 66 1 

Cost 1838.54
Time 1.0776


 * Another infos *

 Iterations: 76 Time: 1.0776 sec - 0.0180 min - 0.0003 horas
0.0000 h 0.0180 min
Problem dimension: 76
